data;
set V := 1 2 3 4 5 6 7 8 9 10 11 12 13 14 15 16 17 18 19 20 21 22 23 24 25 26 27 28 29 30 31 32 33 34 35 36 37 38 39 40 41 42 43 44 45 46 47 48 49 50 51 52;
set E :=
	(1,2)
	(2,1)
	(1,4)
	(4,1)
	(1,14)
	(14,1)
	(1,16)
	(16,1)
	(2,3)
	(3,2)
	(2,13)
	(13,2)
	(2,15)
	(15,2)
	(3,6)
	(6,3)
	(3,10)
	(10,3)
	(3,14)
	(14,3)
	(3,18)
	(18,3)
	(3,22)
	(22,3)
	(4,5)
	(5,4)
	(4,10)
	(10,4)
	(4,13)
	(13,4)
	(4,17)
	(17,4)
	(4,22)
	(22,4)
	(5,8)
	(8,5)
	(5,11)
	(11,5)
	(5,16)
	(16,5)
	(5,20)
	(20,5)
	(5,23)
	(23,5)
	(6,7)
	(7,6)
	(6,11)
	(11,6)
	(6,15)
	(15,6)
	(6,19)
	(19,6)
	(6,23)
	(23,6)
	(7,9)
	(9,7)
	(7,12)
	(12,7)
	(7,18)
	(18,7)
	(7,21)
	(21,7)
	(7,24)
	(24,7)
	(8,9)
	(9,8)
	(8,12)
	(12,8)
	(8,17)
	(17,8)
	(8,21)
	(21,8)
	(8,24)
	(24,8)
	(9,10)
	(10,9)
	(9,11)
	(11,9)
	(9,12)
	(12,9)
	(9,19)
	(19,9)
	(9,20)
	(20,9)
	(9,22)
	(22,9)
	(9,23)
	(23,9)
	(9,24)
	(24,9)
	(10,11)
	(11,10)
	(10,12)
	(12,10)
	(10,15)
	(15,10)
	(10,16)
	(16,10)
	(10,21)
	(21,10)
	(10,23)
	(23,10)
	(10,24)
	(24,10)
	(11,12)
	(12,11)
	(11,17)
	(17,11)
	(11,18)
	(18,11)
	(11,21)
	(21,11)
	(11,22)
	(22,11)
	(11,24)
	(24,11)
	(12,19)
	(19,12)
	(12,20)
	(20,12)
	(12,21)
	(21,12)
	(12,22)
	(22,12)
	(12,23)
	(23,12)
	(13,26)
	(26,13)
	(13,28)
	(28,13)
	(13,50)
	(50,13)
	(14,25)
	(25,14)
	(14,27)
	(27,14)
	(14,50)
	(50,14)
	(15,26)
	(26,15)
	(15,30)
	(30,15)
	(15,34)
	(34,15)
	(15,50)
	(50,15)
	(16,25)
	(25,16)
	(16,29)
	(29,16)
	(16,34)
	(34,16)
	(16,50)
	(50,16)
	(17,28)
	(28,17)
	(17,32)
	(32,17)
	(17,35)
	(35,17)
	(17,50)
	(50,17)
	(18,27)
	(27,18)
	(18,31)
	(31,18)
	(18,35)
	(35,18)
	(18,50)
	(50,18)
	(19,30)
	(30,19)
	(19,33)
	(33,19)
	(19,36)
	(36,19)
	(19,50)
	(50,19)
	(20,29)
	(29,20)
	(20,33)
	(33,20)
	(20,36)
	(36,20)
	(20,50)
	(50,20)
	(21,31)
	(31,21)
	(21,32)
	(32,21)
	(21,34)
	(34,21)
	(21,35)
	(35,21)
	(21,36)
	(36,21)
	(21,50)
	(50,21)
	(22,27)
	(27,22)
	(22,28)
	(28,22)
	(22,33)
	(33,22)
	(22,35)
	(35,22)
	(22,36)
	(36,22)
	(22,50)
	(50,22)
	(23,29)
	(29,23)
	(23,30)
	(30,23)
	(23,33)
	(33,23)
	(23,34)
	(34,23)
	(23,36)
	(36,23)
	(23,50)
	(50,23)
	(24,31)
	(31,24)
	(24,32)
	(32,24)
	(24,33)
	(33,24)
	(24,34)
	(34,24)
	(24,35)
	(35,24)
	(24,50)
	(50,24)
	(25,38)
	(38,25)
	(25,40)
	(40,25)
	(25,51)
	(51,25)
	(26,37)
	(37,26)
	(26,39)
	(39,26)
	(26,51)
	(51,26)
	(27,38)
	(38,27)
	(27,42)
	(42,27)
	(27,46)
	(46,27)
	(27,51)
	(51,27)
	(28,37)
	(37,28)
	(28,41)
	(41,28)
	(28,46)
	(46,28)
	(28,51)
	(51,28)
	(29,40)
	(40,29)
	(29,44)
	(44,29)
	(29,47)
	(47,29)
	(29,51)
	(51,29)
	(30,39)
	(39,30)
	(30,43)
	(43,30)
	(30,47)
	(47,30)
	(30,51)
	(51,30)
	(31,42)
	(42,31)
	(31,45)
	(45,31)
	(31,48)
	(48,31)
	(31,51)
	(51,31)
	(32,41)
	(41,32)
	(32,45)
	(45,32)
	(32,48)
	(48,32)
	(32,51)
	(51,32)
	(33,43)
	(43,33)
	(33,44)
	(44,33)
	(33,46)
	(46,33)
	(33,47)
	(47,33)
	(33,48)
	(48,33)
	(33,51)
	(51,33)
	(34,39)
	(39,34)
	(34,40)
	(40,34)
	(34,45)
	(45,34)
	(34,47)
	(47,34)
	(34,48)
	(48,34)
	(34,51)
	(51,34)
	(35,41)
	(41,35)
	(35,42)
	(42,35)
	(35,45)
	(45,35)
	(35,46)
	(46,35)
	(35,48)
	(48,35)
	(35,51)
	(51,35)
	(36,43)
	(43,36)
	(36,44)
	(44,36)
	(36,45)
	(45,36)
	(36,46)
	(46,36)
	(36,47)
	(47,36)
	(36,51)
	(51,36)
	(37,49)
	(49,37)
	(37,52)
	(52,37)
	(38,49)
	(49,38)
	(38,52)
	(52,38)
	(39,49)
	(49,39)
	(39,52)
	(52,39)
	(40,49)
	(49,40)
	(40,52)
	(52,40)
	(41,49)
	(49,41)
	(41,52)
	(52,41)
	(42,49)
	(49,42)
	(42,52)
	(52,42)
	(43,49)
	(49,43)
	(43,52)
	(52,43)
	(44,49)
	(49,44)
	(44,52)
	(52,44)
	(45,49)
	(49,45)
	(45,52)
	(52,45)
	(46,49)
	(49,46)
	(46,52)
	(52,46)
	(47,49)
	(49,47)
	(47,52)
	(52,47)
	(48,49)
	(49,48)
	(48,52)
	(52,48)
	(49,50)
	(50,49)
	(49,51)
	(51,49)
	(49,52)
	(52,49)
	(50,51)
	(51,50)
	(50,52)
	(52,50)
	(51,52)
	(52,51);
param vertexCount := 52;
end;
